%%% 64 guests version 2

N = 64; 
gender = [1, 2, 1, 1, 1, 1, 2, 1, 1, 1, 1, 2, 1, 1, 1, 2, 2, 1, 2, 2, 1, 1, 2, 2, 2, 1, 2, 1, 2, 2, 1, 1, 1, 2, 2, 1, 1, 2, 1, 2, 1, 1, 1, 1, 1, 2, 1, 2, 1, 1, 2, 1, 2, 2, 2, 2, 2, 2, 2, 2, 2, 2, 2, 2]; 
hobbies = [	 {2,1,3},
	 {2,1,3},
	 {3,2},
	 {3,2,1},
	 {2,1,3},
	 {2,3,1},
	 {1,2,3},
	 {3,1},
	 {2,3,1},
	 {3,2,1},
	 {1,3,2},
	 {3,1,2},
	 {2,3},
	 {1,2},
	 {2,3,1},
	 {2,3},
	 {3,2},
	 {1,3,2},
	 {3,1},
	 {1,3,2},
	 {2,3},
	 {2,3},
	 {1,2},
	 {3,1,2},
	 {3,1,2},
	 {2,1,3},
	 {2,3,1},
	 {1,2},
	 {2,3,1},
	 {2,1,3},
	 {1,2,3},
	 {1,2},
	 {2,3,1},
	 {2,1,3},
	 {2,3},
	 {2,1},
	 {2,1},
	 {1,3,2},
	 {3,1,2},
	 {1,2,3},
	 {2,1,3},
	 {3,1},
	 {1,3,2},
	 {3,1,2},
	 {1,2},
	 {1,2,3},
	 {1,2},
	 {3,2},
	 {3,2},
	 {2,3},
	 {2,1,3},
	 {1,2,3},
	 {2,1},
	 {1,2,3},
	 {1,2,3},
	 {2,1,3},
	 {3,2,1},
	 {3,1,2},
	 {1,2,3},
	 {3,1},
	 {3,2,1},
	 {2,3},
	 {3,1,2},
	 {3,2}
	 ];

%%% Enemies 
pR = 3;
furious = [|52,64|44,58|33,48|];